Read MPS format model from file dat/rmp/DER_96_32768_54.mps
Reading time = 7.52 seconds
: 32864 rows, 254240 columns, 21912342 nonzeros
Gurobi Optimizer version 9.0.0 build v9.0.0rc2 (linux64)
Optimize a model with 32864 rows, 254240 columns and 21912342 nonzeros
Model fingerprint: 0x7b19786f
Coefficient statistics:
  Matrix range     [1e-13, 1e+01]
  Objective range  [8e-01, 1e+03]
  Bounds range     [2e+05, 2e+05]
  RHS range        [1e+00, 1e+00]
Ordering time: 0.09s

Barrier statistics:
 AA' NZ     : 2.973e+06
 Factor NZ  : 3.329e+06 (roughly 140 MBytes of memory)
 Factor Ops : 3.482e+08 (roughly 1 second per iteration)
 Threads    : 1

                  Objective                Residual
Iter       Primal          Dual         Primal    Dual     Compl     Time
   0   7.36593884e+09 -5.49036857e+08  3.36e+08 1.33e-02  6.75e+05     5s
   1   7.37996493e+07 -6.29407596e+07  2.93e+06 2.73e-12  6.17e+03     7s
   2   6.57932321e+06 -1.78984418e+07  2.49e+05 1.82e-12  5.84e+02     9s
   3   3.64956664e+05 -1.18452325e+07  5.17e+03 3.64e-12  5.69e+01    11s
   4   2.28484114e+05 -3.07690677e+06  3.44e+01 3.64e-12  1.30e+01    12s
   5   2.27338719e+05  1.68190192e+05  2.38e-09 3.64e-12  2.33e-01    14s
   6   2.26694195e+05  2.17267920e+05  3.52e-09 1.09e-11  3.71e-02    16s
   7   2.25751385e+05  2.20307764e+05  3.54e-09 7.28e-12  2.14e-02    18s
   8   2.25319200e+05  2.22453852e+05  2.66e-09 4.55e-12  1.13e-02    20s
   9   2.24503703e+05  2.23358289e+05  5.47e-09 5.46e-12  4.50e-03    22s
  10   2.24257068e+05  2.23618915e+05  3.23e-09 5.46e-12  2.51e-03    24s
  11   2.24123935e+05  2.23723045e+05  5.25e-09 3.64e-12  1.58e-03    25s
  12   2.23982669e+05  2.23803891e+05  5.49e-09 1.82e-12  7.03e-04    27s
  13   2.23973252e+05  2.23821461e+05  5.98e-09 3.64e-12  5.97e-04    29s
  14   2.23922299e+05  2.23843291e+05  1.86e-08 1.82e-12  3.11e-04    31s
  15   2.23918405e+05  2.23853121e+05  1.74e-08 3.64e-12  2.57e-04    32s
  16   2.23901518e+05  2.23858946e+05  3.30e-08 3.64e-12  1.67e-04    34s
  17   2.23894209e+05  2.23863793e+05  2.25e-08 1.82e-12  1.20e-04    36s
  18   2.23891157e+05  2.23867293e+05  2.16e-08 1.82e-12  9.38e-05    38s
  19   2.23888298e+05  2.23871693e+05  2.01e-08 1.82e-12  6.53e-05    40s
  20   2.23885704e+05  2.23873087e+05  2.95e-08 1.82e-12  4.96e-05    41s
  21   2.23883380e+05  2.23874372e+05  2.32e-08 1.82e-12  3.54e-05    44s
  22   2.23882474e+05  2.23874693e+05  2.92e-08 1.82e-12  3.06e-05    46s
  23   2.23881710e+05  2.23875021e+05  3.72e-08 1.82e-12  2.63e-05    47s
  24   2.23880646e+05  2.23875507e+05  2.56e-08 1.82e-12  2.02e-05    49s
  25   2.23879924e+05  2.23875989e+05  2.72e-08 1.82e-12  1.55e-05    51s
  26   2.23879355e+05  2.23876291e+05  2.80e-08 1.94e-12  1.20e-05    52s
  27   2.23878913e+05  2.23876570e+05  2.85e-08 2.83e-12  9.21e-06    54s
  28   2.23878620e+05  2.23876757e+05  2.16e-08 2.88e-12  7.32e-06    56s
  29   2.23878368e+05  2.23876895e+05  4.10e-08 3.72e-12  5.79e-06    58s
  30   2.23878147e+05  2.23876984e+05  4.79e-08 3.55e-12  4.57e-06    60s
  31   2.23877904e+05  2.23877052e+05  1.02e-07 3.64e-12  3.35e-06    61s
  32   2.23877842e+05  2.23877083e+05  1.02e-07 2.78e-12  2.98e-06    63s
  33   2.23877713e+05  2.23877114e+05  1.18e-07 2.40e-12  2.36e-06    65s
  34   2.23877565e+05  2.23877165e+05  5.09e-07 2.35e-12  1.57e-06    67s
  35   2.23877494e+05  2.23877184e+05  7.41e-07 2.02e-12  1.22e-06    69s
  36   2.23877422e+05  2.23877208e+05  7.52e-07 1.82e-12  8.43e-07    71s
  37   2.23877395e+05  2.23877215e+05  1.72e-06 1.82e-12  7.08e-07    72s
  38   2.23877380e+05  2.23877219e+05  1.88e-06 3.64e-12  6.31e-07    74s
  39   2.23877356e+05  2.23877226e+05  1.35e-06 3.64e-12  5.11e-07    76s
  40   2.23877329e+05  2.23877236e+05  2.11e-06 1.82e-12  3.66e-07    78s
  41   2.23877312e+05  2.23877243e+05  1.78e-06 3.64e-12  2.71e-07    79s
  42   2.23877296e+05  2.23877247e+05  1.40e-06 1.82e-12  1.93e-07    81s
  43   2.23877275e+05  2.23877251e+05  3.28e-06 3.64e-12  9.63e-08    83s
  44   2.23877274e+05  2.23877254e+05  5.24e-06 3.64e-12  7.86e-08    85s
  45   2.23877269e+05  2.23877254e+05  3.41e-06 1.82e-12  6.03e-08    87s
  46   2.23877268e+05  2.23877255e+05  3.25e-06 1.82e-12  5.08e-08    88s
  47   2.23877266e+05  2.23877256e+05  1.28e-05 1.82e-12  3.80e-08    90s
  48   2.23877265e+05  2.23877257e+05  9.17e-06 1.82e-12  3.00e-08    92s
  49   2.23877263e+05  2.23877258e+05  1.02e-05 1.82e-12  2.00e-08    94s
  50   2.23877263e+05  2.23877258e+05  1.31e-05 1.82e-12  1.72e-08    95s
  51   2.23877261e+05  2.23877259e+05  4.81e-05 1.82e-12  8.47e-09    97s
  52   2.23877261e+05  2.23877259e+05  4.83e-05 1.82e-12  5.86e-09    99s
  53   2.23877260e+05  2.23877260e+05  3.49e-05 3.64e-12  1.73e-09   101s
  54   2.23877260e+05  2.23877260e+05  4.71e-05 3.64e-12  6.56e-11   103s

Barrier solved model in 54 iterations and 102.85 seconds
Optimal objective 2.23881710e+05

Solve time: 102.874554953
Barrier iterations: 54
